/*
** Test Model 1
**  VMware_Storage 
*/

eVOLUMES = {
vm1_vol1,vm2_vol1,vm3_vol1,vm4_vol1,vm5_vol1,vm6_vol1,vm7_vol1,vm8_vol1,vm9_vol1,vm10_vol1,vm11_vol1,vm12_vol1,vm13_vol1,vm14_vol1,vm15_vol1,vm16_vol1,vm17_vol1,vm18_vol1,vm19_vol1,vm20_vol1,vm1_vol2,vm2_vol2,vm3_vol2,vm4_vol2,vm5_vol2,vm6_vol2,vm7_vol2,vm8_vol2,vm9_vol2,vm10_vol2,vm11_vol2,vm12_vol2,vm13_vol2,vm14_vol2,vm15_vol2,vm16_vol2,vm17_vol2,vm18_vol2,vm19_vol2,vm20_vol2,vm1_vol3,vm2_vol3,vm3_vol3,vm4_vol3,vm5_vol3,vm6_vol3,vm7_vol3,vm8_vol3,vm9_vol3,vm10_vol3,vm11_vol3,vm12_vol3,vm13_vol3,vm14_vol3,vm15_vol3,vm16_vol3,vm17_vol3,vm18_vol3,vm19_vol3,vm20_vol3,vm1_vol4,vm2_vol4,vm3_vol4,vm4_vol4,vm5_vol4,vm6_vol4,vm7_vol4,vm8_vol4,vm9_vol4,vm10_vol4,vm11_vol4,vm12_vol4,vm13_vol4,vm14_vol4,vm15_vol4,vm16_vol4,vm17_vol4,vm18_vol4,vm19_vol4,vm20_vol4
};

eDATASTORES = {
ds1,ds2,ds3,ds4,ds5,ds6,ds7,ds8,ds9,ds10,ds11,ds12,ds13,ds14,ds15,ds16,ds17,ds18,ds19,ds20,ds21,ds22,ds23,ds24,ds25,ds26,ds27,ds28,ds29,ds30,ds31,ds32,ds33,ds34,ds35,ds36,ds37,ds38,ds39,ds40 
};

iVol_iops = [35,35,35,35,35,35,35,35,35,35,35,35,35,35,35,35,35,35,35,35,100,100,100,100,100,100,100,100,100,100,100,100,100,100,100,100,100,100,100,100,1000,1000,1000,1000,1000,1000,1000,1000,1000,1000,1000,1000,1000,1000,1000,1000,1000,1000,1000,1000,10,10,10,10,10,10,10,10,10,10,10,10,10,10,10,10,10,10,10,10];

iVol_size = [
80,80,80,80,80,80,80,80,80,80,80,80,80,80,80,80,80,80,80,80,250,250,250,250,250,250,250,250,250,250,250,250,250,250,250,250,250,250,250,250,500,500,500,500,500,500,500,500,500,500,500,500,500,500,500,500,500,500,500,500,1000,1000,1000,1000,1000,1000,1000,1000,1000,1000,1000,1000,1000,1000,1000,1000,1000,1000,1000,1000
];

iVol_peakiops = [
35,35,35,35,35,35,35,35,35,35,35,35,35,35,35,35,35,35,35,35,100,100,100,100,100,100,100,100,100,100,100,100,100,100,100,100,100,100,100,100,1000,1000,1000,1000,1000,1000,1000,1000,1000,1000,1000,1000,1000,1000,1000,1000,1000,1000,1000,1000,10,10,10,10,10,10,10,10,10,10,10,10,10,10,10,10,10,10,10,10
];

iDatastore_cost = [
410,410,410,410,410,410,410,410,410,410,205,205,205,205,205,205,205,205,205,205,164,164,164,164,164,164,164,164,164,164,103,103,103,103,103,103,103,103,103,103
];

iDatastore_size = [
2048,2048,2048,2048,2048,2048,2048,2048,2048,2048,2048,2048,2048,2048,2048,2048,2048,2048,2048,2048,2048,2048,2048,2048,2048,2048,2048,2048,2048,2048,2048,2048,2048,2048,2048,2048,2048,2048,2048,2048
];

iDatastore_iops = [
4000,4000,4000,4000,4000,4000,4000,4000,4000,4000,1000,1000,1000,1000,1000,1000,1000,1000,1000,1000,500,500,500,500,500,500,500,500,500,500,100,100,100,100,100,100,100,100,100,100
];
